c Random 3-CNF over 4 variables and 5 clauses
c Generated with `cnfgen`
c (C) 2012-2016 Massimo Lauria <lauria.massimo@gmail.com>
c https://massimolauria.github.io/cnfgen
c
c COMMAND LINE: cnfgen randkcnf 3 4 5
c
p cnf 4 5
1 2 4 0
-1 3 4 0
-1 3 -4 0
1 -3 -4 0
-1 2 4 0
